c description: Random 3-CNF over 19 variables and 81 clauses
c generator: CNFgen (0.9.2)
c copyright: (C) 2012-2022 Massimo Lauria <massimo.lauria@uniroma1.it>
c url: https://massimolauria.net/cnfgen
c command line: cnfgen --output CNF_4.28/19_bit_81_410.cnf randkcnf 3 19 81
c
p cnf 19 81
-4 11 -12 0
-1 5 -8 0
3 -7 -8 0
1 -8 -18 0
-6 9 18 0
-4 -7 15 0
-6 -8 -15 0
10 -14 -16 0
-4 -8 15 0
-5 -14 17 0
-4 9 -18 0
-12 -13 15 0
-3 -13 -14 0
9 12 17 0
10 -13 15 0
-1 -5 -12 0
-3 -16 17 0
1 -7 -19 0
-12 -14 19 0
9 11 -17 0
-3 -8 10 0
5 9 19 0
14 18 -19 0
4 13 -17 0
-5 9 15 0
2 3 12 0
1 10 -17 0
-7 15 -17 0
-4 -9 -13 0
-9 12 14 0
2 12 17 0
-7 8 11 0
11 -12 14 0
-6 10 -19 0
6 -15 -16 0
4 -9 -16 0
-3 6 12 0
1 7 -8 0
-4 5 -8 0
3 -8 -16 0
-1 7 17 0
9 14 -19 0
2 -3 -16 0
-3 -13 17 0
8 18 -19 0
-7 -10 19 0
5 -11 -14 0
-16 18 19 0
-1 -17 18 0
9 -11 -17 0
1 -12 18 0
8 -14 -18 0
2 4 -6 0
-5 10 -18 0
10 11 -14 0
11 14 -19 0
-6 14 -17 0
-4 -6 -12 0
-7 -10 11 0
5 15 -17 0
-6 -8 14 0
4 14 -15 0
-1 8 -13 0
9 -16 -19 0
-4 7 11 0
2 8 10 0
8 11 -12 0
-5 6 -17 0
-14 16 18 0
8 -10 11 0
-3 -4 14 0
7 16 18 0
-3 15 -16 0
3 8 -19 0
8 13 -15 0
1 5 -15 0
-7 10 18 0
-1 6 -16 0
10 12 -17 0
2 14 19 0
3 9 -13 0
